Titel of Simulation                     
   1.00000000000000     
     8.4641137064999992    0.0000000000000000    0.0000000000000000
    -4.2320568531999996    7.3301374904000003    0.0000000000000000
     0.0000000000000000    0.0000000000000000   46.2340000000000018
    Te    Ge
    28    32
Selective dynamics
Direct
  0.0000000000000000  0.5000000000000000  0.7446972358980380   T   T   T
  0.0000000000000000  0.0000000000000000  0.7446972358980380   T   T   T
  0.5000000000000000  0.0000000000000000  0.7446972358980380   T   T   T
  0.5000000000000000  0.5000000000000000  0.7446972358980380   T   T   T
  0.6666666667000030  0.8333333332999970  0.6637423839333897   T   T   T
  0.1666666667000030  0.3333333332999970  0.6637423839333897   T   T   T
  0.1666666667000030  0.8333333332999970  0.6637423839333897   T   T   T
  0.6666666667000030  0.3333333332999970  0.6637423839333897   T   T   T
  0.8333333332999970  0.1666666667000030  0.5838344076000013   F   F   F
  0.8333333332999970  0.6666666666999959  0.5838344076000013   F   F   F
  0.3333333332999970  0.1666666667000030  0.5838344076000013   F   F   F
  0.3333333332999970  0.6666666666999959  0.5838344076000013   F   F   F
  0.5000000000000000  0.5000000000000000  0.5000000000000000   F   F   F
  0.0000000000000000  0.0000000000000000  0.5000000000000000   F   F   F
  0.0000000000000000  0.5000000000000000  0.5000000000000000   F   F   F
  0.5000000000000000  0.0000000000000000  0.5000000000000000   F   F   F
  0.1666666667000030  0.8333333332999970  0.4161655923999987   F   F   F
  0.1666666667000030  0.3333333332999970  0.4161655923999987   F   F   F
  0.6666666667000030  0.8333333332999970  0.4161655923999987   F   F   F
  0.6666666667000030  0.3333333332999970  0.4161655923999987   F   F   F
  0.8333333332999970  0.1666666667000030  0.3362576160666100   T   T   T
  0.3333333332999970  0.6666666667000030  0.3362576160666100   T   T   T
  0.3333333332999970  0.1666666667000030  0.3362576160666100   T   T   T
  0.8333333332999970  0.6666666667000030  0.3362576160666100   T   T   T
  0.5000000000000000  0.0000000000000000  0.2553027641019620   T   T   T
  0.0000000000000000  0.5000000000000000  0.2553027641019620   T   T   T
  0.0000000000000000  0.0000000000000000  0.2553027641019620   T   T   T
  0.5000000000000000  0.5000000000000000  0.2553027641019620   T   T   T
  0.1666666667000030  0.8333333332999970  0.7763713299797094   T   T   T
  0.1666666667000030  0.3333333332999970  0.7763713299797094   T   T   T
  0.6666666667000030  0.8333333332999970  0.7763713299797094   T   T   T
  0.6666666667000030  0.3333333332999970  0.7763713299797094   T   T   T
  0.8333333332999970  0.1666666667000030  0.6958722831793540   T   T   T
  0.8333333332999970  0.6666666666999959  0.6958722831793540   T   T   T
  0.3333333332999970  0.6666666666999959  0.6958722831793540   T   T   T
  0.3333333332999970  0.1666666667000030  0.6958722831793540   T   T   T
  0.0000000000000000  0.0000000000000000  0.6171407319892582   T   T   T
  0.0000000000000000  0.5000000000000000  0.6171407319892582   T   T   T
  0.5000000000000000  0.0000000000000000  0.6171407319892582   T   T   T
  0.5000000000000000  0.5000000000000000  0.6171407319892582   T   T   T
  0.1666666667000030  0.8333333332999970  0.5375481247999971   F   F   F
  0.1666666667000030  0.3333333332999970  0.5375481247999971   F   F   F
  0.6666666667000030  0.3333333332999970  0.5375481247999971   F   F   F
  0.6666666667000030  0.8333333332999970  0.5375481247999971   F   F   F
  0.8333333332999970  0.6666666667000030  0.4624518752000029   F   F   F
  0.8333333332999970  0.1666666667000030  0.4624518752000029   F   F   F
  0.3333333332999970  0.6666666667000030  0.4624518752000029   F   F   F
  0.3333333332999970  0.1666666667000030  0.4624518752000029   F   F   F
  0.5000000000000000  0.0000000000000000  0.3828592680107419   T   T   T
  0.0000000000000000  0.5000000000000000  0.3828592680107419   T   T   T
  0.0000000000000000  0.0000000000000000  0.3828592680107419   T   T   T
  0.5000000000000000  0.5000000000000000  0.3828592680107419   T   T   T
  0.6666666667000030  0.3333333332999970  0.3041277168206460   T   T   T
  0.1666666667000030  0.8333333332999970  0.3041277168206460   T   T   T
  0.1666666667000030  0.3333333332999970  0.3041277168206460   T   T   T
  0.6666666667000030  0.8333333332999970  0.3041277168206460   T   T   T
  0.8333333332999970  0.6666666667000030  0.2236286700202905   T   T   T
  0.3333333332999970  0.1666666667000030  0.2236286700202905   T   T   T
  0.3333333332999970  0.6666666667000030  0.2236286700202905   T   T   T
  0.8333333332999970  0.1666666667000030  0.2236286700202905   T   T   T
 
  0.00000000E+00  0.00000000E+00  0.00000000E+00
  0.00000000E+00  0.00000000E+00  0.00000000E+00
  0.00000000E+00  0.00000000E+00  0.00000000E+00
  0.00000000E+00  0.00000000E+00  0.00000000E+00
  0.00000000E+00  0.00000000E+00  0.00000000E+00
  0.00000000E+00  0.00000000E+00  0.00000000E+00
  0.00000000E+00  0.00000000E+00  0.00000000E+00
  0.00000000E+00  0.00000000E+00  0.00000000E+00
  0.00000000E+00  0.00000000E+00  0.00000000E+00
  0.00000000E+00  0.00000000E+00  0.00000000E+00
  0.00000000E+00  0.00000000E+00  0.00000000E+00
  0.00000000E+00  0.00000000E+00  0.00000000E+00
  0.00000000E+00  0.00000000E+00  0.00000000E+00
  0.00000000E+00  0.00000000E+00  0.00000000E+00
  0.00000000E+00  0.00000000E+00  0.00000000E+00
  0.00000000E+00  0.00000000E+00  0.00000000E+00
  0.00000000E+00  0.00000000E+00  0.00000000E+00
  0.00000000E+00  0.00000000E+00  0.00000000E+00
  0.00000000E+00  0.00000000E+00  0.00000000E+00
  0.00000000E+00  0.00000000E+00  0.00000000E+00
  0.00000000E+00  0.00000000E+00  0.00000000E+00
  0.00000000E+00  0.00000000E+00  0.00000000E+00
  0.00000000E+00  0.00000000E+00  0.00000000E+00
  0.00000000E+00  0.00000000E+00  0.00000000E+00
  0.00000000E+00  0.00000000E+00  0.00000000E+00
  0.00000000E+00  0.00000000E+00  0.00000000E+00
  0.00000000E+00  0.00000000E+00  0.00000000E+00
  0.00000000E+00  0.00000000E+00  0.00000000E+00
  0.00000000E+00  0.00000000E+00  0.00000000E+00
  0.00000000E+00  0.00000000E+00  0.00000000E+00
  0.00000000E+00  0.00000000E+00  0.00000000E+00
  0.00000000E+00  0.00000000E+00  0.00000000E+00
  0.00000000E+00  0.00000000E+00  0.00000000E+00
  0.00000000E+00  0.00000000E+00  0.00000000E+00
  0.00000000E+00  0.00000000E+00  0.00000000E+00
  0.00000000E+00  0.00000000E+00  0.00000000E+00
  0.00000000E+00  0.00000000E+00  0.00000000E+00
  0.00000000E+00  0.00000000E+00  0.00000000E+00
  0.00000000E+00  0.00000000E+00  0.00000000E+00
  0.00000000E+00  0.00000000E+00  0.00000000E+00
  0.00000000E+00  0.00000000E+00  0.00000000E+00
  0.00000000E+00  0.00000000E+00  0.00000000E+00
  0.00000000E+00  0.00000000E+00  0.00000000E+00
  0.00000000E+00  0.00000000E+00  0.00000000E+00
  0.00000000E+00  0.00000000E+00  0.00000000E+00
  0.00000000E+00  0.00000000E+00  0.00000000E+00
  0.00000000E+00  0.00000000E+00  0.00000000E+00
  0.00000000E+00  0.00000000E+00  0.00000000E+00
  0.00000000E+00  0.00000000E+00  0.00000000E+00
  0.00000000E+00  0.00000000E+00  0.00000000E+00
  0.00000000E+00  0.00000000E+00  0.00000000E+00
  0.00000000E+00  0.00000000E+00  0.00000000E+00
  0.00000000E+00  0.00000000E+00  0.00000000E+00
  0.00000000E+00  0.00000000E+00  0.00000000E+00
  0.00000000E+00  0.00000000E+00  0.00000000E+00
  0.00000000E+00  0.00000000E+00  0.00000000E+00
  0.00000000E+00  0.00000000E+00  0.00000000E+00
  0.00000000E+00  0.00000000E+00  0.00000000E+00
  0.00000000E+00  0.00000000E+00  0.00000000E+00
  0.00000000E+00  0.00000000E+00  0.00000000E+00
