Titel of Simulation                     
   1.00000000000000     
     8.4641137064999992    0.0000000000000000    0.0000000000000000
    -4.2320568531999996    7.3301374904000003    0.0000000000000000
     0.0000000000000000    0.0000000000000000   46.2340000000000018
   Ge   Te
    26    32
Selective dynamics
Direct
  0.0016230336761011  0.5008115168380470  0.7417477865027430   T   T   T
  0.0000000000000000  0.0000000000000000  0.7328279269502836   T   T   T
  0.4991884831619530  0.9983769663238988  0.7417477865027430   T   T   T
  0.4991884831619530  0.5008115168380470  0.7417477865027430   T   T   T
  0.6745678850576335  0.8372839424788159  0.6633688594556539   T   T   T
  0.1627160575211841  0.3254321149423665  0.6633688594556539   T   T   T
  0.1627160575211841  0.8372839424788159  0.6633688594556539   T   T   T
  0.8333333332999970  0.1666666667000030  0.5838344076000013   F   F   F
  0.8333333332999970  0.6666666666999959  0.5838344076000013   F   F   F
  0.3333333332999970  0.1666666667000030  0.5838344076000013   F   F   F
  0.3333333332999970  0.6666666666999959  0.5838344076000013   F   F   F
  0.5000000000000000  0.5000000000000000  0.5000000000000000   F   F   F
  0.0000000000000000  0.0000000000000000  0.5000000000000000   F   F   F
  0.0000000000000000  0.5000000000000000  0.5000000000000000   F   F   F
  0.5000000000000000  0.0000000000000000  0.5000000000000000   F   F   F
  0.1666666667000030  0.8333333332999970  0.4161655923999987   F   F   F
  0.1666666667000030  0.3333333332999970  0.4161655923999987   F   F   F
  0.6666666667000030  0.8333333332999970  0.4161655923999987   F   F   F
  0.6666666667000030  0.3333333332999970  0.4161655923999987   F   F   F
  0.8372839424788159  0.1627160575211841  0.3366311405443461   T   T   T
  0.3254321149423665  0.1627160575211841  0.3366311405443461   T   T   T
  0.8372839424788159  0.6745678850576335  0.3366311405443461   T   T   T
  0.5008115168380470  0.0016230336761011  0.2582522134972570   T   T   T
  0.9983769663238988  0.4991884831619530  0.2582522134972570   T   T   T
  0.0000000000000000  0.0000000000000000  0.2671720730497163   T   T   T
  0.5008115168380470  0.4991884831619530  0.2582522134972570   T   T   T
  0.1621728560957713  0.8378271439042287  0.7706228211386122   T   T   T
  0.1621728560957713  0.3243457120915267  0.7706228211386122   T   T   T
  0.6756542879084734  0.8378271439042287  0.7706228211386122   T   T   T
  0.6666666667000030  0.3333333332999970  0.7725319526792205   T   T   T
  0.8340269733444593  0.1659730266555408  0.6944286277390453   T   T   T
  0.8340269733444593  0.6680539467889132  0.6944286277390453   T   T   T
  0.3333333332999970  0.6666666666999959  0.6938463827601257   T   T   T
  0.3319460532110798  0.1659730266555408  0.6944286277390453   T   T   T
  0.0000000000000000  0.0000000000000000  0.6168372162390168   T   T   T
  0.9997768970075568  0.4998884485037784  0.6163699689946065   T   T   T
  0.5001115514962216  0.0002231029924431  0.6163699689946065   T   T   T
  0.5001115514962216  0.4998884485037784  0.6163699689946065   T   T   T
  0.1666666667000030  0.8333333332999970  0.5375481247999971   F   F   F
  0.1666666667000030  0.3333333332999970  0.5375481247999971   F   F   F
  0.6666666667000030  0.3333333332999970  0.5375481247999971   F   F   F
  0.6666666667000030  0.8333333332999970  0.5375481247999971   F   F   F
  0.8333333332999970  0.6666666667000030  0.4624518752000029   F   F   F
  0.8333333332999970  0.1666666667000030  0.4624518752000029   F   F   F
  0.3333333332999970  0.6666666667000030  0.4624518752000029   F   F   F
  0.3333333332999970  0.1666666667000030  0.4624518752000029   F   F   F
  0.4998884485037784  0.9997768970075568  0.3836300310053934   T   T   T
  0.0002231029924431  0.5001115514962216  0.3836300310053934   T   T   T
  0.0000000000000000  0.0000000000000000  0.3831627837609831   T   T   T
  0.4998884485037784  0.5001115514962216  0.3836300310053934   T   T   T
  0.6666666667000030  0.3333333332999970  0.3061536172398744   T   T   T
  0.1659730266555408  0.8340269733444593  0.3055713722609547   T   T   T
  0.1659730266555408  0.3319460532110798  0.3055713722609547   T   T   T
  0.6680539467889203  0.8340269733444593  0.3055713722609547   T   T   T
  0.8378271439042287  0.6756542879084734  0.2293771788613878   T   T   T
  0.3243457120915267  0.1621728560957713  0.2293771788613878   T   T   T
  0.3333333332999970  0.6666666667000030  0.2274680473207795   T   T   T
  0.8378271439042287  0.1621728560957713  0.2293771788613878   T   T   T
 
  0.00000000E+00  0.00000000E+00  0.00000000E+00
  0.00000000E+00  0.00000000E+00  0.00000000E+00
  0.00000000E+00  0.00000000E+00  0.00000000E+00
  0.00000000E+00  0.00000000E+00  0.00000000E+00
  0.00000000E+00  0.00000000E+00  0.00000000E+00
  0.00000000E+00  0.00000000E+00  0.00000000E+00
  0.00000000E+00  0.00000000E+00  0.00000000E+00
  0.00000000E+00  0.00000000E+00  0.00000000E+00
  0.00000000E+00  0.00000000E+00  0.00000000E+00
  0.00000000E+00  0.00000000E+00  0.00000000E+00
  0.00000000E+00  0.00000000E+00  0.00000000E+00
  0.00000000E+00  0.00000000E+00  0.00000000E+00
  0.00000000E+00  0.00000000E+00  0.00000000E+00
  0.00000000E+00  0.00000000E+00  0.00000000E+00
  0.00000000E+00  0.00000000E+00  0.00000000E+00
  0.00000000E+00  0.00000000E+00  0.00000000E+00
  0.00000000E+00  0.00000000E+00  0.00000000E+00
  0.00000000E+00  0.00000000E+00  0.00000000E+00
  0.00000000E+00  0.00000000E+00  0.00000000E+00
  0.00000000E+00  0.00000000E+00  0.00000000E+00
  0.00000000E+00  0.00000000E+00  0.00000000E+00
  0.00000000E+00  0.00000000E+00  0.00000000E+00
  0.00000000E+00  0.00000000E+00  0.00000000E+00
  0.00000000E+00  0.00000000E+00  0.00000000E+00
  0.00000000E+00  0.00000000E+00  0.00000000E+00
  0.00000000E+00  0.00000000E+00  0.00000000E+00
  0.00000000E+00  0.00000000E+00  0.00000000E+00
  0.00000000E+00  0.00000000E+00  0.00000000E+00
  0.00000000E+00  0.00000000E+00  0.00000000E+00
  0.00000000E+00  0.00000000E+00  0.00000000E+00
  0.00000000E+00  0.00000000E+00  0.00000000E+00
  0.00000000E+00  0.00000000E+00  0.00000000E+00
  0.00000000E+00  0.00000000E+00  0.00000000E+00
  0.00000000E+00  0.00000000E+00  0.00000000E+00
  0.00000000E+00  0.00000000E+00  0.00000000E+00
  0.00000000E+00  0.00000000E+00  0.00000000E+00
  0.00000000E+00  0.00000000E+00  0.00000000E+00
  0.00000000E+00  0.00000000E+00  0.00000000E+00
  0.00000000E+00  0.00000000E+00  0.00000000E+00
  0.00000000E+00  0.00000000E+00  0.00000000E+00
  0.00000000E+00  0.00000000E+00  0.00000000E+00
  0.00000000E+00  0.00000000E+00  0.00000000E+00
  0.00000000E+00  0.00000000E+00  0.00000000E+00
  0.00000000E+00  0.00000000E+00  0.00000000E+00
  0.00000000E+00  0.00000000E+00  0.00000000E+00
  0.00000000E+00  0.00000000E+00  0.00000000E+00
  0.00000000E+00  0.00000000E+00  0.00000000E+00
  0.00000000E+00  0.00000000E+00  0.00000000E+00
  0.00000000E+00  0.00000000E+00  0.00000000E+00
  0.00000000E+00  0.00000000E+00  0.00000000E+00
  0.00000000E+00  0.00000000E+00  0.00000000E+00
  0.00000000E+00  0.00000000E+00  0.00000000E+00
  0.00000000E+00  0.00000000E+00  0.00000000E+00
  0.00000000E+00  0.00000000E+00  0.00000000E+00
  0.00000000E+00  0.00000000E+00  0.00000000E+00
  0.00000000E+00  0.00000000E+00  0.00000000E+00
  0.00000000E+00  0.00000000E+00  0.00000000E+00
  0.00000000E+00  0.00000000E+00  0.00000000E+00
