Titel of Simulation                     
   1.00000000000000     
     8.4641137064999992    0.0000000000000000    0.0000000000000000
    -4.2320568531999996    7.3301374904000003    0.0000000000000000
     0.0000000000000000    0.0000000000000000   46.2340000000000018
   Ge   Te
    28    32
Selective dynamics
Direct
  0.0000000000000000  0.5000000000000000  0.7426067958785756   T   T   T
  0.0000000000000000  0.0000000000000000  0.7426067958785756   T   T   T
  0.5000000000000000  0.0000000000000000  0.7426067958785756   T   T   T
  0.5000000000000000  0.5000000000000000  0.7426067958785756   T   T   T
  0.6666666667000030  0.8333333332999970  0.6623368239744589   T   T   T
  0.1666666667000030  0.3333333332999970  0.6623368239744589   T   T   T
  0.1666666667000030  0.8333333332999970  0.6623368239744589   T   T   T
  0.6666666667000030  0.3333333332999970  0.6623368239744589   T   T   T
  0.8333333332999970  0.1666666667000030  0.5838344076000013   F   F   F
  0.8333333332999970  0.6666666666999959  0.5838344076000013   F   F   F
  0.3333333332999970  0.1666666667000030  0.5838344076000013   F   F   F
  0.3333333332999970  0.6666666666999959  0.5838344076000013   F   F   F
  0.5000000000000000  0.5000000000000000  0.5000000000000000   F   F   F
  0.0000000000000000  0.0000000000000000  0.5000000000000000   F   F   F
  0.0000000000000000  0.5000000000000000  0.5000000000000000   F   F   F
  0.5000000000000000  0.0000000000000000  0.5000000000000000   F   F   F
  0.1666666667000030  0.8333333332999970  0.4161655923999987   F   F   F
  0.1666666667000030  0.3333333332999970  0.4161655923999987   F   F   F
  0.6666666667000030  0.8333333332999970  0.4161655923999987   F   F   F
  0.6666666667000030  0.3333333332999970  0.4161655923999987   F   F   F
  0.8333333332999970  0.1666666667000030  0.3376631760255411   T   T   T
  0.3333333332999970  0.6666666667000030  0.3376631760255411   T   T   T
  0.3333333332999970  0.1666666667000030  0.3376631760255411   T   T   T
  0.8333333332999970  0.6666666667000030  0.3376631760255411   T   T   T
  0.5000000000000000  0.0000000000000000  0.2573932041214247   T   T   T
  0.0000000000000000  0.5000000000000000  0.2573932041214247   T   T   T
  0.0000000000000000  0.0000000000000000  0.2573932041214247   T   T   T
  0.5000000000000000  0.5000000000000000  0.2573932041214247   T   T   T
  0.1666666667000030  0.8333333332999970  0.7737398179120424   T   T   T
  0.1666666667000030  0.3333333332999970  0.7737398179120424   T   T   T
  0.6666666667000030  0.8333333332999970  0.7737398179120424   T   T   T
  0.6666666667000030  0.3333333332999970  0.7737398179120424   T   T   T
  0.8333333332999970  0.1666666667000030  0.6944992205511714   T   T   T
  0.8333333332999970  0.6666666666999959  0.6944992205511714   T   T   T
  0.3333333332999970  0.6666666666999959  0.6944992205511714   T   T   T
  0.3333333332999970  0.1666666667000030  0.6944992205511714   T   T   T
  0.0000000000000000  0.0000000000000000  0.6169776799259967   T   T   T
  0.0000000000000000  0.5000000000000000  0.6169776799259967   T   T   T
  0.5000000000000000  0.0000000000000000  0.6169776799259967   T   T   T
  0.5000000000000000  0.5000000000000000  0.6169776799259967   T   T   T
  0.1666666667000030  0.8333333332999970  0.5375481247999971   F   F   F
  0.1666666667000030  0.3333333332999970  0.5375481247999971   F   F   F
  0.6666666667000030  0.3333333332999970  0.5375481247999971   F   F   F
  0.6666666667000030  0.8333333332999970  0.5375481247999971   F   F   F
  0.8333333332999970  0.6666666667000030  0.4624518752000029   F   F   F
  0.8333333332999970  0.1666666667000030  0.4624518752000029   F   F   F
  0.3333333332999970  0.6666666667000030  0.4624518752000029   F   F   F
  0.3333333332999970  0.1666666667000030  0.4624518752000029   F   F   F
  0.5000000000000000  0.0000000000000000  0.3830223200740032   T   T   T
  0.0000000000000000  0.5000000000000000  0.3830223200740032   T   T   T
  0.0000000000000000  0.0000000000000000  0.3830223200740032   T   T   T
  0.5000000000000000  0.5000000000000000  0.3830223200740032   T   T   T
  0.6666666667000030  0.3333333332999970  0.3055007794488289   T   T   T
  0.1666666667000030  0.8333333332999970  0.3055007794488289   T   T   T
  0.1666666667000030  0.3333333332999970  0.3055007794488289   T   T   T
  0.6666666667000030  0.8333333332999970  0.3055007794488289   T   T   T
  0.8333333332999970  0.6666666667000030  0.2262601820879579   T   T   T
  0.3333333332999970  0.1666666667000030  0.2262601820879579   T   T   T
  0.3333333332999970  0.6666666667000030  0.2262601820879579   T   T   T
  0.8333333332999970  0.1666666667000030  0.2262601820879579   T   T   T
 
  0.00000000E+00  0.00000000E+00  0.00000000E+00
  0.00000000E+00  0.00000000E+00  0.00000000E+00
  0.00000000E+00  0.00000000E+00  0.00000000E+00
  0.00000000E+00  0.00000000E+00  0.00000000E+00
  0.00000000E+00  0.00000000E+00  0.00000000E+00
  0.00000000E+00  0.00000000E+00  0.00000000E+00
  0.00000000E+00  0.00000000E+00  0.00000000E+00
  0.00000000E+00  0.00000000E+00  0.00000000E+00
  0.00000000E+00  0.00000000E+00  0.00000000E+00
  0.00000000E+00  0.00000000E+00  0.00000000E+00
  0.00000000E+00  0.00000000E+00  0.00000000E+00
  0.00000000E+00  0.00000000E+00  0.00000000E+00
  0.00000000E+00  0.00000000E+00  0.00000000E+00
  0.00000000E+00  0.00000000E+00  0.00000000E+00
  0.00000000E+00  0.00000000E+00  0.00000000E+00
  0.00000000E+00  0.00000000E+00  0.00000000E+00
  0.00000000E+00  0.00000000E+00  0.00000000E+00
  0.00000000E+00  0.00000000E+00  0.00000000E+00
  0.00000000E+00  0.00000000E+00  0.00000000E+00
  0.00000000E+00  0.00000000E+00  0.00000000E+00
  0.00000000E+00  0.00000000E+00  0.00000000E+00
  0.00000000E+00  0.00000000E+00  0.00000000E+00
  0.00000000E+00  0.00000000E+00  0.00000000E+00
  0.00000000E+00  0.00000000E+00  0.00000000E+00
  0.00000000E+00  0.00000000E+00  0.00000000E+00
  0.00000000E+00  0.00000000E+00  0.00000000E+00
  0.00000000E+00  0.00000000E+00  0.00000000E+00
  0.00000000E+00  0.00000000E+00  0.00000000E+00
  0.00000000E+00  0.00000000E+00  0.00000000E+00
  0.00000000E+00  0.00000000E+00  0.00000000E+00
  0.00000000E+00  0.00000000E+00  0.00000000E+00
  0.00000000E+00  0.00000000E+00  0.00000000E+00
  0.00000000E+00  0.00000000E+00  0.00000000E+00
  0.00000000E+00  0.00000000E+00  0.00000000E+00
  0.00000000E+00  0.00000000E+00  0.00000000E+00
  0.00000000E+00  0.00000000E+00  0.00000000E+00
  0.00000000E+00  0.00000000E+00  0.00000000E+00
  0.00000000E+00  0.00000000E+00  0.00000000E+00
  0.00000000E+00  0.00000000E+00  0.00000000E+00
  0.00000000E+00  0.00000000E+00  0.00000000E+00
  0.00000000E+00  0.00000000E+00  0.00000000E+00
  0.00000000E+00  0.00000000E+00  0.00000000E+00
  0.00000000E+00  0.00000000E+00  0.00000000E+00
  0.00000000E+00  0.00000000E+00  0.00000000E+00
  0.00000000E+00  0.00000000E+00  0.00000000E+00
  0.00000000E+00  0.00000000E+00  0.00000000E+00
  0.00000000E+00  0.00000000E+00  0.00000000E+00
  0.00000000E+00  0.00000000E+00  0.00000000E+00
  0.00000000E+00  0.00000000E+00  0.00000000E+00
  0.00000000E+00  0.00000000E+00  0.00000000E+00
  0.00000000E+00  0.00000000E+00  0.00000000E+00
  0.00000000E+00  0.00000000E+00  0.00000000E+00
  0.00000000E+00  0.00000000E+00  0.00000000E+00
  0.00000000E+00  0.00000000E+00  0.00000000E+00
  0.00000000E+00  0.00000000E+00  0.00000000E+00
  0.00000000E+00  0.00000000E+00  0.00000000E+00
  0.00000000E+00  0.00000000E+00  0.00000000E+00
  0.00000000E+00  0.00000000E+00  0.00000000E+00
  0.00000000E+00  0.00000000E+00  0.00000000E+00
  0.00000000E+00  0.00000000E+00  0.00000000E+00
