Titel of Simulation                     
   1.00000000000000     
     8.4641137064999992    0.0000000000000000    0.0000000000000000
    -4.2320568531999996    7.3301374904000003    0.0000000000000000
     0.0000000000000000    0.0000000000000000   46.2340000000000018
   Ge   Te
    26    24
Selective dynamics
Direct
  0.0539089350299396  0.6078178700598721  0.7342912098860207   T   T   T
  0.3921821299401278  0.9460910649700602  0.7342912098860207   T   T   T
  0.0539089350299396  0.9460910649700602  0.7342912098860207   T   T   T
  0.1375375137110810  0.3187687568055396  0.6579406352592172   T   T   T
  0.1666666666999959  0.8333333332999970  0.6607947468894996   T   T   T
  0.6812312431944534  0.8624624862889119  0.6579406352592172   T   T   T
  0.6812312431944534  0.3187687568055396  0.6579406352592172   T   T   T
  0.8333333332999970  0.1666666666999959  0.5838344076000013   F   F   F
  0.8333333332999970  0.6666666666999959  0.5838344076000013   F   F   F
  0.3333333332999970  0.1666666666999959  0.5838344076000013   F   F   F
  0.3333333332999970  0.6666666666999959  0.5838344076000013   F   F   F
  0.0000000000000000  0.0000000000000000  0.5000000000000000   F   F   F
  0.0000000000000000  0.5000000000000000  0.5000000000000000   F   F   F
  0.5000000000000000  0.5000000000000000  0.5000000000000000   F   F   F
  0.5000000000000000  0.0000000000000000  0.5000000000000000   F   F   F
  0.6666666667000030  0.3333333332999970  0.4161655923999987   F   F   F
  0.6666666667000030  0.8333333332999970  0.4161655923999987   F   F   F
  0.1666666666999959  0.3333333332999970  0.4161655923999987   F   F   F
  0.1666666667000030  0.8333333332999970  0.4161655923999987   F   F   F
  0.8333333332999970  0.1666666667000030  0.3392052531105003   T   T   T
  0.3187687568055396  0.6812312431944534  0.3420593647407831   T   T   T
  0.3187687568055396  0.1375375137110881  0.3420593647407831   T   T   T
  0.8624624862889119  0.6812312431944534  0.3420593647407831   T   T   T
  0.9460910649700602  0.0539089350299396  0.2657087901139792   T   T   T
  0.9460910649700602  0.3921821299401278  0.2657087901139792   T   T   T
  0.6078178700598721  0.0539089350299396  0.2657087901139792   T   T   T
  0.3340210570810208  0.1680421142620363  0.6972490307637212   T   T   T
  0.8333333332999970  0.1666666666999959  0.6940486337779543   T   T   T
  0.8319578857379567  0.6659789429189721  0.6972490307637212   T   T   T
  0.3340210570810208  0.6659789429189721  0.6972490307637212   T   T   T
  0.0015424593006880  0.5030849186013758  0.6210441322476749   T   T   T
  0.0015424593006880  0.9984575406993121  0.6210441322476749   T   T   T
  0.4969150813986241  0.9984575406993121  0.6210441322476749   T   T   T
  0.5000000000000000  0.5000000000000000  0.6170150054803386   T   T   T
  0.1666666666999959  0.8333333332999970  0.5375481247999971   F   F   F
  0.1666666666999959  0.3333333332999970  0.5375481247999971   F   F   F
  0.6666666666999959  0.3333333332999970  0.5375481247999971   F   F   F
  0.6666666666999959  0.8333333332999970  0.5375481247999971   F   F   F
  0.8333333332999970  0.6666666666999959  0.4624518752000029   F   F   F
  0.8333333332999970  0.1666666666999959  0.4624518752000029   F   F   F
  0.3333333332999970  0.6666666666999959  0.4624518752000029   F   F   F
  0.3333333332999970  0.1666666666999959  0.4624518752000029   F   F   F
  0.9984575406993121  0.0015424593006880  0.3789558677523250   T   T   T
  0.5000000000000000  0.5000000000000000  0.3829849945196610   T   T   T
  0.9984575406993121  0.4969150813986241  0.3789558677523250   T   T   T
  0.5030849186013758  0.0015424593006880  0.3789558677523250   T   T   T
  0.6659789429189792  0.8319578857379567  0.3027509692362788   T   T   T
  0.1680421142620434  0.3340210570810208  0.3027509692362788   T   T   T
  0.1666666667000030  0.8333333332999970  0.3059513662220457   T   T   T
  0.6659789429189792  0.3340210570810208  0.3027509692362788   T   T   T
 
  0.00000000E+00  0.00000000E+00  0.00000000E+00
  0.00000000E+00  0.00000000E+00  0.00000000E+00
  0.00000000E+00  0.00000000E+00  0.00000000E+00
  0.00000000E+00  0.00000000E+00  0.00000000E+00
  0.00000000E+00  0.00000000E+00  0.00000000E+00
  0.00000000E+00  0.00000000E+00  0.00000000E+00
  0.00000000E+00  0.00000000E+00  0.00000000E+00
  0.00000000E+00  0.00000000E+00  0.00000000E+00
  0.00000000E+00  0.00000000E+00  0.00000000E+00
  0.00000000E+00  0.00000000E+00  0.00000000E+00
  0.00000000E+00  0.00000000E+00  0.00000000E+00
  0.00000000E+00  0.00000000E+00  0.00000000E+00
  0.00000000E+00  0.00000000E+00  0.00000000E+00
  0.00000000E+00  0.00000000E+00  0.00000000E+00
  0.00000000E+00  0.00000000E+00  0.00000000E+00
  0.00000000E+00  0.00000000E+00  0.00000000E+00
  0.00000000E+00  0.00000000E+00  0.00000000E+00
  0.00000000E+00  0.00000000E+00  0.00000000E+00
  0.00000000E+00  0.00000000E+00  0.00000000E+00
  0.00000000E+00  0.00000000E+00  0.00000000E+00
  0.00000000E+00  0.00000000E+00  0.00000000E+00
  0.00000000E+00  0.00000000E+00  0.00000000E+00
  0.00000000E+00  0.00000000E+00  0.00000000E+00
  0.00000000E+00  0.00000000E+00  0.00000000E+00
  0.00000000E+00  0.00000000E+00  0.00000000E+00
  0.00000000E+00  0.00000000E+00  0.00000000E+00
  0.00000000E+00  0.00000000E+00  0.00000000E+00
  0.00000000E+00  0.00000000E+00  0.00000000E+00
  0.00000000E+00  0.00000000E+00  0.00000000E+00
  0.00000000E+00  0.00000000E+00  0.00000000E+00
  0.00000000E+00  0.00000000E+00  0.00000000E+00
  0.00000000E+00  0.00000000E+00  0.00000000E+00
  0.00000000E+00  0.00000000E+00  0.00000000E+00
  0.00000000E+00  0.00000000E+00  0.00000000E+00
  0.00000000E+00  0.00000000E+00  0.00000000E+00
  0.00000000E+00  0.00000000E+00  0.00000000E+00
  0.00000000E+00  0.00000000E+00  0.00000000E+00
  0.00000000E+00  0.00000000E+00  0.00000000E+00
  0.00000000E+00  0.00000000E+00  0.00000000E+00
  0.00000000E+00  0.00000000E+00  0.00000000E+00
  0.00000000E+00  0.00000000E+00  0.00000000E+00
  0.00000000E+00  0.00000000E+00  0.00000000E+00
  0.00000000E+00  0.00000000E+00  0.00000000E+00
  0.00000000E+00  0.00000000E+00  0.00000000E+00
  0.00000000E+00  0.00000000E+00  0.00000000E+00
  0.00000000E+00  0.00000000E+00  0.00000000E+00
  0.00000000E+00  0.00000000E+00  0.00000000E+00
  0.00000000E+00  0.00000000E+00  0.00000000E+00
  0.00000000E+00  0.00000000E+00  0.00000000E+00
  0.00000000E+00  0.00000000E+00  0.00000000E+00
