Titel of Simulation                     
   1.00000000000000     
     8.4641137064999992    0.0000000000000000    0.0000000000000000
    -4.2320568531999996    7.3301374904000003    0.0000000000000000
     0.0000000000000000    0.0000000000000000   46.2340000000000018
   Te   Ge
    26    24
Selective dynamics
Direct
  0.0013143578825282  0.5026287157650566  0.7325451293658616   T   T   T
  0.4973712842349508  0.9986856421174718  0.7325451293658616   T   T   T
  0.0013143578825282  0.9986856421174718  0.7325451293658616   T   T   T
  0.1657986008051778  0.3328993003525880  0.6569128520859283   T   T   T
  0.1666666666999959  0.8333333332999970  0.6585127847620672   T   T   T
  0.6671006996474047  0.8342013991948152  0.6569128520859283   T   T   T
  0.6671006996474047  0.3328993003525880  0.6569128520859283   T   T   T
  0.8333333332999970  0.1666666666999959  0.5838344076000013   F   F   F
  0.8333333332999970  0.6666666666999959  0.5838344076000013   F   F   F
  0.3333333332999970  0.1666666666999959  0.5838344076000013   F   F   F
  0.3333333332999970  0.6666666666999959  0.5838344076000013   F   F   F
  0.0000000000000000  0.0000000000000000  0.5000000000000000   F   F   F
  0.0000000000000000  0.5000000000000000  0.5000000000000000   F   F   F
  0.5000000000000000  0.5000000000000000  0.5000000000000000   F   F   F
  0.5000000000000000  0.0000000000000000  0.5000000000000000   F   F   F
  0.6666666667000030  0.3333333332999970  0.4161655923999987   F   F   F
  0.6666666667000030  0.8333333332999970  0.4161655923999987   F   F   F
  0.1666666666999959  0.3333333332999970  0.4161655923999987   F   F   F
  0.1666666667000030  0.8333333332999970  0.4161655923999987   F   F   F
  0.8333333332999970  0.1666666667000030  0.3414872152379328   T   T   T
  0.3328993003525880  0.6671006996474047  0.3430871479140717   T   T   T
  0.3328993003525880  0.1657986008051849  0.3430871479140717   T   T   T
  0.8342013991948152  0.6671006996474047  0.3430871479140717   T   T   T
  0.9986856421174718  0.0013143578825282  0.2674548706341314   T   T   T
  0.9986856421174718  0.4973712842349508  0.2674548706341314   T   T   T
  0.5026287157650566  0.0013143578825282  0.2674548706341314   T   T   T
  0.3159955729481007  0.1319911459962031  0.6974296890834523   T   T   T
  0.8333333332999970  0.1666666666999959  0.7014737599736930   T   T   T
  0.8680088540037898  0.6840044270518921  0.6974296890834523   T   T   T
  0.3159955729481007  0.6840044270518921  0.6974296890834523   T   T   T
  0.9922588817686132  0.4845177635372263  0.6203255176157580   T   T   T
  0.9922588817686132  0.0077411182313868  0.6203255176157580   T   T   T
  0.5154822364627735  0.0077411182313868  0.6203255176157580   T   T   T
  0.5000000000000000  0.5000000000000000  0.6220394378171494   T   T   T
  0.1666666666999959  0.8333333332999970  0.5375481247999971   F   F   F
  0.1666666666999959  0.3333333332999970  0.5375481247999971   F   F   F
  0.6666666666999959  0.3333333332999970  0.5375481247999971   F   F   F
  0.6666666666999959  0.8333333332999970  0.5375481247999971   F   F   F
  0.8333333332999970  0.6666666666999959  0.4624518752000029   F   F   F
  0.8333333332999970  0.1666666666999959  0.4624518752000029   F   F   F
  0.3333333332999970  0.6666666666999959  0.4624518752000029   F   F   F
  0.3333333332999970  0.1666666666999959  0.4624518752000029   F   F   F
  0.0077411182313868  0.9922588817686132  0.3796744823842420   T   T   T
  0.5000000000000000  0.5000000000000000  0.3779605621828506   T   T   T
  0.0077411182313868  0.5154822364627735  0.3796744823842420   T   T   T
  0.4845177635372263  0.9922588817686132  0.3796744823842420   T   T   T
  0.6840044270518992  0.8680088540037898  0.3025703109165477   T   T   T
  0.1319911459962102  0.3159955729481007  0.3025703109165477   T   T   T
  0.1666666667000030  0.8333333332999970  0.2985262400263069   T   T   T
  0.6840044270518992  0.3159955729481007  0.3025703109165477   T   T   T
 
  0.00000000E+00  0.00000000E+00  0.00000000E+00
  0.00000000E+00  0.00000000E+00  0.00000000E+00
  0.00000000E+00  0.00000000E+00  0.00000000E+00
  0.00000000E+00  0.00000000E+00  0.00000000E+00
  0.00000000E+00  0.00000000E+00  0.00000000E+00
  0.00000000E+00  0.00000000E+00  0.00000000E+00
  0.00000000E+00  0.00000000E+00  0.00000000E+00
  0.00000000E+00  0.00000000E+00  0.00000000E+00
  0.00000000E+00  0.00000000E+00  0.00000000E+00
  0.00000000E+00  0.00000000E+00  0.00000000E+00
  0.00000000E+00  0.00000000E+00  0.00000000E+00
  0.00000000E+00  0.00000000E+00  0.00000000E+00
  0.00000000E+00  0.00000000E+00  0.00000000E+00
  0.00000000E+00  0.00000000E+00  0.00000000E+00
  0.00000000E+00  0.00000000E+00  0.00000000E+00
  0.00000000E+00  0.00000000E+00  0.00000000E+00
  0.00000000E+00  0.00000000E+00  0.00000000E+00
  0.00000000E+00  0.00000000E+00  0.00000000E+00
  0.00000000E+00  0.00000000E+00  0.00000000E+00
  0.00000000E+00  0.00000000E+00  0.00000000E+00
  0.00000000E+00  0.00000000E+00  0.00000000E+00
  0.00000000E+00  0.00000000E+00  0.00000000E+00
  0.00000000E+00  0.00000000E+00  0.00000000E+00
  0.00000000E+00  0.00000000E+00  0.00000000E+00
  0.00000000E+00  0.00000000E+00  0.00000000E+00
  0.00000000E+00  0.00000000E+00  0.00000000E+00
  0.00000000E+00  0.00000000E+00  0.00000000E+00
  0.00000000E+00  0.00000000E+00  0.00000000E+00
  0.00000000E+00  0.00000000E+00  0.00000000E+00
  0.00000000E+00  0.00000000E+00  0.00000000E+00
  0.00000000E+00  0.00000000E+00  0.00000000E+00
  0.00000000E+00  0.00000000E+00  0.00000000E+00
  0.00000000E+00  0.00000000E+00  0.00000000E+00
  0.00000000E+00  0.00000000E+00  0.00000000E+00
  0.00000000E+00  0.00000000E+00  0.00000000E+00
  0.00000000E+00  0.00000000E+00  0.00000000E+00
  0.00000000E+00  0.00000000E+00  0.00000000E+00
  0.00000000E+00  0.00000000E+00  0.00000000E+00
  0.00000000E+00  0.00000000E+00  0.00000000E+00
  0.00000000E+00  0.00000000E+00  0.00000000E+00
  0.00000000E+00  0.00000000E+00  0.00000000E+00
  0.00000000E+00  0.00000000E+00  0.00000000E+00
  0.00000000E+00  0.00000000E+00  0.00000000E+00
  0.00000000E+00  0.00000000E+00  0.00000000E+00
  0.00000000E+00  0.00000000E+00  0.00000000E+00
  0.00000000E+00  0.00000000E+00  0.00000000E+00
  0.00000000E+00  0.00000000E+00  0.00000000E+00
  0.00000000E+00  0.00000000E+00  0.00000000E+00
  0.00000000E+00  0.00000000E+00  0.00000000E+00
  0.00000000E+00  0.00000000E+00  0.00000000E+00
