Titel of Simulation                     
   1.00000000000000     
     8.4641137064999992    0.0000000000000000    0.0000000000000000
    -4.2320568531999996    7.3301374904000003    0.0000000000000000
     0.0000000000000000    0.0000000000000000   46.2340000000000018
   Te   Ge
    26    26
Selective dynamics
Direct
 -0.0001644811169606  0.4996710377660787  0.7336933783293424   T   T   T
  0.5003289622339211  0.0001644811169606  0.7336933783293424   T   T   T
 -0.0001644811169606  0.0001644811169606  0.7336933783293424   T   T   T
  0.1678543712721436  0.3339271855860709  0.6576468990063444   T   T   T
  0.1666666666999959  0.8333333332999970  0.6597720949219741   T   T   T
  0.6660728144139219  0.8321456287278494  0.6576468990063444   T   T   T
  0.6660728144139219  0.3339271855860709  0.6576468990063444   T   T   T
  0.8333333332999970  0.1666666666999959  0.5838344076000013   F   F   F
  0.8333333332999970  0.6666666666999959  0.5838344076000013   F   F   F
  0.3333333332999970  0.1666666666999959  0.5838344076000013   F   F   F
  0.3333333332999970  0.6666666666999959  0.5838344076000013   F   F   F
  0.0000000000000000  0.0000000000000000  0.5000000000000000   F   F   F
  0.0000000000000000  0.5000000000000000  0.5000000000000000   F   F   F
  0.5000000000000000  0.5000000000000000  0.5000000000000000   F   F   F
  0.5000000000000000  0.0000000000000000  0.5000000000000000   F   F   F
  0.6666666667000030  0.3333333332999970  0.4161655923999987   F   F   F
  0.6666666667000030  0.8333333332999970  0.4161655923999987   F   F   F
  0.1666666666999959  0.3333333332999970  0.4161655923999987   F   F   F
  0.1666666667000030  0.8333333332999970  0.4161655923999987   F   F   F
  0.8333333332999970  0.1666666667000030  0.3402279050780259   T   T   T
  0.3339271855860709  0.6660728144139219  0.3423531009936557   T   T   T
  0.3339271855860709  0.1678543712721507  0.3423531009936556   T   T   T
  0.8321456287278494  0.6660728144139219  0.3423531009936557   T   T   T
  0.0001644811169606 -0.0001644811169606  0.2663066216706576   T   T   T
  0.0001644811169606  0.5003289622339211  0.2663066216706576   T   T   T
  0.4996710377660787 -0.0001644811169606  0.2663066216706576   T   T   T
  0.1666666666999959  0.8333333332999970  0.7621382853894720   T   T   T
  0.3179138829942753  0.1358277660885519  0.6980616071810052   T   T   T
  0.8333333332999970  0.1666666666999959  0.6901323187191561   T   T   T
  0.8641722339114406  0.6820861170057179  0.6980616071810052   T   T   T
  0.3179138829942753  0.6820861170057179  0.6980616071810052   T   T   T
 -0.0072987540043829  0.4854024919912344  0.6203204651086632   T   T   T
 -0.0072987540043829  0.0072987540043829  0.6203204651086632   T   T   T
  0.5145975080087658  0.0072987540043829  0.6203204651086632   T   T   T
  0.5000000000000000  0.5000000000000000  0.6177376480637947   T   T   T
  0.1666666666999959  0.8333333332999970  0.5375481247999971   F   F   F
  0.1666666666999959  0.3333333332999970  0.5375481247999971   F   F   F
  0.6666666666999959  0.3333333332999970  0.5375481247999971   F   F   F
  0.6666666666999959  0.8333333332999970  0.5375481247999971   F   F   F
  0.8333333332999970  0.6666666666999959  0.4624518752000029   F   F   F
  0.8333333332999970  0.1666666666999959  0.4624518752000029   F   F   F
  0.3333333332999970  0.6666666666999959  0.4624518752000029   F   F   F
  0.3333333332999970  0.1666666666999959  0.4624518752000029   F   F   F
  0.0072987540043829 -0.0072987540043829  0.3796795348913363   T   T   T
  0.5000000000000000  0.5000000000000000  0.3822623519362057   T   T   T
  0.0072987540043829  0.5145975080087658  0.3796795348913363   T   T   T
  0.4854024919912344 -0.0072987540043829  0.3796795348913363   T   T   T
  0.6820861170057250  0.8641722339114406  0.3019383928189948   T   T   T
  0.1358277660885590  0.3179138829942753  0.3019383928189948   T   T   T
  0.1666666667000030  0.8333333332999970  0.3098676812808439   T   T   T
  0.6820861170057250  0.3179138829942753  0.3019383928189948   T   T   T
  0.8333333332999970  0.1666666667000030  0.2378617146105281   T   T   T
 
  0.00000000E+00  0.00000000E+00  0.00000000E+00
  0.00000000E+00  0.00000000E+00  0.00000000E+00
  0.00000000E+00  0.00000000E+00  0.00000000E+00
  0.00000000E+00  0.00000000E+00  0.00000000E+00
  0.00000000E+00  0.00000000E+00  0.00000000E+00
  0.00000000E+00  0.00000000E+00  0.00000000E+00
  0.00000000E+00  0.00000000E+00  0.00000000E+00
  0.00000000E+00  0.00000000E+00  0.00000000E+00
  0.00000000E+00  0.00000000E+00  0.00000000E+00
  0.00000000E+00  0.00000000E+00  0.00000000E+00
  0.00000000E+00  0.00000000E+00  0.00000000E+00
  0.00000000E+00  0.00000000E+00  0.00000000E+00
  0.00000000E+00  0.00000000E+00  0.00000000E+00
  0.00000000E+00  0.00000000E+00  0.00000000E+00
  0.00000000E+00  0.00000000E+00  0.00000000E+00
  0.00000000E+00  0.00000000E+00  0.00000000E+00
  0.00000000E+00  0.00000000E+00  0.00000000E+00
  0.00000000E+00  0.00000000E+00  0.00000000E+00
  0.00000000E+00  0.00000000E+00  0.00000000E+00
  0.00000000E+00  0.00000000E+00  0.00000000E+00
  0.00000000E+00  0.00000000E+00  0.00000000E+00
  0.00000000E+00  0.00000000E+00  0.00000000E+00
  0.00000000E+00  0.00000000E+00  0.00000000E+00
  0.00000000E+00  0.00000000E+00  0.00000000E+00
  0.00000000E+00  0.00000000E+00  0.00000000E+00
  0.00000000E+00  0.00000000E+00  0.00000000E+00
  0.00000000E+00  0.00000000E+00  0.00000000E+00
  0.00000000E+00  0.00000000E+00  0.00000000E+00
  0.00000000E+00  0.00000000E+00  0.00000000E+00
  0.00000000E+00  0.00000000E+00  0.00000000E+00
  0.00000000E+00  0.00000000E+00  0.00000000E+00
  0.00000000E+00  0.00000000E+00  0.00000000E+00
  0.00000000E+00  0.00000000E+00  0.00000000E+00
  0.00000000E+00  0.00000000E+00  0.00000000E+00
  0.00000000E+00  0.00000000E+00  0.00000000E+00
  0.00000000E+00  0.00000000E+00  0.00000000E+00
  0.00000000E+00  0.00000000E+00  0.00000000E+00
  0.00000000E+00  0.00000000E+00  0.00000000E+00
  0.00000000E+00  0.00000000E+00  0.00000000E+00
  0.00000000E+00  0.00000000E+00  0.00000000E+00
  0.00000000E+00  0.00000000E+00  0.00000000E+00
  0.00000000E+00  0.00000000E+00  0.00000000E+00
  0.00000000E+00  0.00000000E+00  0.00000000E+00
  0.00000000E+00  0.00000000E+00  0.00000000E+00
  0.00000000E+00  0.00000000E+00  0.00000000E+00
  0.00000000E+00  0.00000000E+00  0.00000000E+00
  0.00000000E+00  0.00000000E+00  0.00000000E+00
  0.00000000E+00  0.00000000E+00  0.00000000E+00
  0.00000000E+00  0.00000000E+00  0.00000000E+00
  0.00000000E+00  0.00000000E+00  0.00000000E+00
  0.00000000E+00  0.00000000E+00  0.00000000E+00
  0.00000000E+00  0.00000000E+00  0.00000000E+00
