Titel of Simulation                     
   1.00000000000000     
     8.4641137064999992    0.0000000000000000    0.0000000000000000
    -4.2320568531999996    7.3301374904000003    0.0000000000000000
     0.0000000000000000    0.0000000000000000   46.2340000000000018
   Ge   Te
    26    26
Selective dynamics
Direct
  0.0214062728939155  0.5428125457878310  0.7311733282047990   T   T   T
  0.4571874542121690  0.9785937271060845  0.7311733282047990   T   T   T
  0.0214062728939155  0.9785937271060845  0.7311733282047990   T   T   T
  0.1455124954397110  0.3227562476698475  0.6573406644757542   T   T   T
  0.1666666666999959  0.8333333332999970  0.6614216593106145   T   T   T
  0.6772437523301454  0.8544875045602819  0.6573406644757542   T   T   T
  0.6772437523301454  0.3227562476698475  0.6573406644757542   T   T   T
  0.8333333332999970  0.1666666666999959  0.5838344076000013   F   F   F
  0.8333333332999970  0.6666666666999959  0.5838344076000013   F   F   F
  0.3333333332999970  0.1666666666999959  0.5838344076000013   F   F   F
  0.3333333332999970  0.6666666666999959  0.5838344076000013   F   F   F
  0.0000000000000000  0.0000000000000000  0.5000000000000000   F   F   F
  0.0000000000000000  0.5000000000000000  0.5000000000000000   F   F   F
  0.5000000000000000  0.5000000000000000  0.5000000000000000   F   F   F
  0.5000000000000000  0.0000000000000000  0.5000000000000000   F   F   F
  0.6666666667000030  0.3333333332999970  0.4161655923999987   F   F   F
  0.6666666667000030  0.8333333332999970  0.4161655923999987   F   F   F
  0.1666666666999959  0.3333333332999970  0.4161655923999987   F   F   F
  0.1666666667000030  0.8333333332999970  0.4161655923999987   F   F   F
  0.8333333332999970  0.1666666667000030  0.3385783406893856   T   T   T
  0.3227562476698475  0.6772437523301454  0.3426593355242457   T   T   T
  0.3227562476698475  0.1455124954397181  0.3426593355242457   T   T   T
  0.8544875045602819  0.6772437523301454  0.3426593355242457   T   T   T
  0.9785937271060845  0.0214062728939155  0.2688266717952010   T   T   T
  0.9785937271060845  0.4571874542121690  0.2688266717952010   T   T   T
  0.5428125457878310  0.0214062728939155  0.2688266717952010   T   T   T
  0.1666666666999959  0.8333333332999970  0.7704519716864952   T   T   T
  0.3339924224475128  0.1679848449950274  0.6966492988510277   T   T   T
  0.8333333332999970  0.1666666666999959  0.6950665667831716   T   T   T
  0.8320151550049656  0.6660075775524800  0.6966492988510277   T   T   T
  0.3339924224475128  0.6660075775524800  0.6966492988510277   T   T   T
  0.0003435285549701  0.5006870571099330  0.6201960196733883   T   T   T
  0.0003435285549701  0.9996564714450298  0.6201960196733883   T   T   T
  0.4993129428900669  0.9996564714450298  0.6201960196733883   T   T   T
  0.5000000000000000  0.5000000000000000  0.6196110411747286   T   T   T
  0.1666666666999959  0.8333333332999970  0.5375481247999971   F   F   F
  0.1666666666999959  0.3333333332999970  0.5375481247999971   F   F   F
  0.6666666666999959  0.3333333332999970  0.5375481247999971   F   F   F
  0.6666666666999959  0.8333333332999970  0.5375481247999971   F   F   F
  0.8333333332999970  0.6666666666999959  0.4624518752000029   F   F   F
  0.8333333332999970  0.1666666666999959  0.4624518752000029   F   F   F
  0.3333333332999970  0.6666666666999959  0.4624518752000029   F   F   F
  0.3333333332999970  0.1666666666999959  0.4624518752000029   F   F   F
  0.9996564714450298  0.0003435285549701  0.3798039803266117   T   T   T
  0.5000000000000000  0.5000000000000000  0.3803889588252713   T   T   T
  0.9996564714450298  0.4993129428900669  0.3798039803266117   T   T   T
  0.5006870571099330  0.0003435285549701  0.3798039803266117   T   T   T
  0.6660075775524871  0.8320151550049656  0.3033507011489723   T   T   T
  0.1679848449950345  0.3339924224475128  0.3033507011489723   T   T   T
  0.1666666667000030  0.8333333332999970  0.3049334332168285   T   T   T
  0.6660075775524871  0.3339924224475128  0.3033507011489723   T   T   T
  0.8333333332999970  0.1666666667000030  0.2295480283135050   T   T   T
 
  0.00000000E+00  0.00000000E+00  0.00000000E+00
  0.00000000E+00  0.00000000E+00  0.00000000E+00
  0.00000000E+00  0.00000000E+00  0.00000000E+00
  0.00000000E+00  0.00000000E+00  0.00000000E+00
  0.00000000E+00  0.00000000E+00  0.00000000E+00
  0.00000000E+00  0.00000000E+00  0.00000000E+00
  0.00000000E+00  0.00000000E+00  0.00000000E+00
  0.00000000E+00  0.00000000E+00  0.00000000E+00
  0.00000000E+00  0.00000000E+00  0.00000000E+00
  0.00000000E+00  0.00000000E+00  0.00000000E+00
  0.00000000E+00  0.00000000E+00  0.00000000E+00
  0.00000000E+00  0.00000000E+00  0.00000000E+00
  0.00000000E+00  0.00000000E+00  0.00000000E+00
  0.00000000E+00  0.00000000E+00  0.00000000E+00
  0.00000000E+00  0.00000000E+00  0.00000000E+00
  0.00000000E+00  0.00000000E+00  0.00000000E+00
  0.00000000E+00  0.00000000E+00  0.00000000E+00
  0.00000000E+00  0.00000000E+00  0.00000000E+00
  0.00000000E+00  0.00000000E+00  0.00000000E+00
  0.00000000E+00  0.00000000E+00  0.00000000E+00
  0.00000000E+00  0.00000000E+00  0.00000000E+00
  0.00000000E+00  0.00000000E+00  0.00000000E+00
  0.00000000E+00  0.00000000E+00  0.00000000E+00
  0.00000000E+00  0.00000000E+00  0.00000000E+00
  0.00000000E+00  0.00000000E+00  0.00000000E+00
  0.00000000E+00  0.00000000E+00  0.00000000E+00
  0.00000000E+00  0.00000000E+00  0.00000000E+00
  0.00000000E+00  0.00000000E+00  0.00000000E+00
  0.00000000E+00  0.00000000E+00  0.00000000E+00
  0.00000000E+00  0.00000000E+00  0.00000000E+00
  0.00000000E+00  0.00000000E+00  0.00000000E+00
  0.00000000E+00  0.00000000E+00  0.00000000E+00
  0.00000000E+00  0.00000000E+00  0.00000000E+00
  0.00000000E+00  0.00000000E+00  0.00000000E+00
  0.00000000E+00  0.00000000E+00  0.00000000E+00
  0.00000000E+00  0.00000000E+00  0.00000000E+00
  0.00000000E+00  0.00000000E+00  0.00000000E+00
  0.00000000E+00  0.00000000E+00  0.00000000E+00
  0.00000000E+00  0.00000000E+00  0.00000000E+00
  0.00000000E+00  0.00000000E+00  0.00000000E+00
  0.00000000E+00  0.00000000E+00  0.00000000E+00
  0.00000000E+00  0.00000000E+00  0.00000000E+00
  0.00000000E+00  0.00000000E+00  0.00000000E+00
  0.00000000E+00  0.00000000E+00  0.00000000E+00
  0.00000000E+00  0.00000000E+00  0.00000000E+00
  0.00000000E+00  0.00000000E+00  0.00000000E+00
  0.00000000E+00  0.00000000E+00  0.00000000E+00
  0.00000000E+00  0.00000000E+00  0.00000000E+00
  0.00000000E+00  0.00000000E+00  0.00000000E+00
  0.00000000E+00  0.00000000E+00  0.00000000E+00
  0.00000000E+00  0.00000000E+00  0.00000000E+00
  0.00000000E+00  0.00000000E+00  0.00000000E+00
