Titel of Simulation                     
   1.00000000000000     
     8.4641137064999992    0.0000000000000000    0.0000000000000000
    -4.2320568531999996    7.3301374904000003    0.0000000000000000
     0.0000000000000000    0.0000000000000000   46.2340000000000018
   Ge   Te
    26    32
Selective dynamics
Direct
  0.9916082432833065  0.4832164865666063  0.7450035470781705   T   T   T
  0.9916082432833065  0.0083917567166934  0.7450035470781705   T   T   T
  0.5167835134333938  0.0083917567166934  0.7450035470781705   T   T   T
  0.6650550927980110  0.8301101854960129  0.6626707165664245   T   T   T
  0.1698898145039872  0.3349449072019891  0.6626707165664245   T   T   T
  0.1666666667000030  0.8333333332999970  0.6626983103514767   T   T   T
  0.6650550927980110  0.3349449072019891  0.6626707165664245   T   T   T
  0.8333333332999970  0.1666666667000030  0.5838344076000013   F   F   F
  0.8333333332999970  0.6666666666999959  0.5838344076000013   F   F   F
  0.3333333332999970  0.1666666667000030  0.5838344076000013   F   F   F
  0.3333333332999970  0.6666666666999959  0.5838344076000013   F   F   F
  0.5000000000000000  0.5000000000000000  0.5000000000000000   F   F   F
  0.0000000000000000  0.0000000000000000  0.5000000000000000   F   F   F
  0.0000000000000000  0.5000000000000000  0.5000000000000000   F   F   F
  0.5000000000000000  0.0000000000000000  0.5000000000000000   F   F   F
  0.1666666667000030  0.8333333332999970  0.4161655923999987   F   F   F
  0.1666666667000030  0.3333333332999970  0.4161655923999987   F   F   F
  0.6666666667000030  0.8333333332999970  0.4161655923999987   F   F   F
  0.6666666667000030  0.3333333332999970  0.4161655923999987   F   F   F
  0.8333333332999970  0.1666666667000030  0.3373016896485234   T   T   T
  0.3349449072019891  0.6650550927980110  0.3373292834335755   T   T   T
  0.3349449072019891  0.1698898145039872  0.3373292834335755   T   T   T
  0.8301101854960129  0.6650550927980110  0.3373292834335755   T   T   T
  0.4832164865666063  0.9916082432833065  0.2549964529218294   T   T   T
  0.0083917567166934  0.5167835134333938  0.2549964529218294   T   T   T
  0.0083917567166934  0.9916082432833065  0.2549964529218294   T   T   T
  0.1666666667000030  0.8333333332999970  0.7717079189755438   T   T   T
  0.1796874758595903  0.3398437378797907  0.7718083329866049   T   T   T
  0.6601562621202094  0.8203125241404097  0.7718083329866049   T   T   T
  0.6601562621202094  0.3398437378797907  0.7718083329866049   T   T   T
  0.8333333332999970  0.1666666667000030  0.6948345949713548   T   T   T
  0.8335515039925672  0.6667757520462845  0.6944039624350358   T   T   T
  0.3332242479537084  0.6667757520462845  0.6944039624350358   T   T   T
  0.3332242479537084  0.1664484960074328  0.6944039624350358   T   T   T
  0.0001889101248511  0.9998110898751490  0.6167262375379142   T   T   T
  0.0001889101248511  0.5003778202496952  0.6167262375379142   T   T   T
  0.4996221797503049  0.9998110898751490  0.6167262375379142   T   T   T
  0.5000000000000000  0.5000000000000000  0.6172132535536589   T   T   T
  0.1666666667000030  0.8333333332999970  0.5375481247999971   F   F   F
  0.1666666667000030  0.3333333332999970  0.5375481247999971   F   F   F
  0.6666666667000030  0.3333333332999970  0.5375481247999971   F   F   F
  0.6666666667000030  0.8333333332999970  0.5375481247999971   F   F   F
  0.8333333332999970  0.6666666667000030  0.4624518752000029   F   F   F
  0.8333333332999970  0.1666666667000030  0.4624518752000029   F   F   F
  0.3333333332999970  0.6666666667000030  0.4624518752000029   F   F   F
  0.3333333332999970  0.1666666667000030  0.4624518752000029   F   F   F
  0.5003778202496952  0.0001889101248511  0.3832737624620856   T   T   T
  0.9998110898751490  0.4996221797503049  0.3832737624620856   T   T   T
  0.9998110898751490  0.0001889101248511  0.3832737624620856   T   T   T
  0.5000000000000000  0.5000000000000000  0.3827867464463413   T   T   T
  0.6667757520462916  0.3332242479537084  0.3055960375649644   T   T   T
  0.1666666667000030  0.8333333332999970  0.3051654050286451   T   T   T
  0.1664484960074328  0.3332242479537084  0.3055960375649644   T   T   T
  0.6667757520462916  0.8335515039925672  0.3055960375649644   T   T   T
  0.8203125241404097  0.6601562621202094  0.2281916670133952   T   T   T
  0.3398437378797907  0.1796874758595903  0.2281916670133952   T   T   T
  0.3398437378797907  0.6601562621202094  0.2281916670133952   T   T   T
  0.8333333332999970  0.1666666667000030  0.2282920810244562   T   T   T
 
  0.00000000E+00  0.00000000E+00  0.00000000E+00
  0.00000000E+00  0.00000000E+00  0.00000000E+00
  0.00000000E+00  0.00000000E+00  0.00000000E+00
  0.00000000E+00  0.00000000E+00  0.00000000E+00
  0.00000000E+00  0.00000000E+00  0.00000000E+00
  0.00000000E+00  0.00000000E+00  0.00000000E+00
  0.00000000E+00  0.00000000E+00  0.00000000E+00
  0.00000000E+00  0.00000000E+00  0.00000000E+00
  0.00000000E+00  0.00000000E+00  0.00000000E+00
  0.00000000E+00  0.00000000E+00  0.00000000E+00
  0.00000000E+00  0.00000000E+00  0.00000000E+00
  0.00000000E+00  0.00000000E+00  0.00000000E+00
  0.00000000E+00  0.00000000E+00  0.00000000E+00
  0.00000000E+00  0.00000000E+00  0.00000000E+00
  0.00000000E+00  0.00000000E+00  0.00000000E+00
  0.00000000E+00  0.00000000E+00  0.00000000E+00
  0.00000000E+00  0.00000000E+00  0.00000000E+00
  0.00000000E+00  0.00000000E+00  0.00000000E+00
  0.00000000E+00  0.00000000E+00  0.00000000E+00
  0.00000000E+00  0.00000000E+00  0.00000000E+00
  0.00000000E+00  0.00000000E+00  0.00000000E+00
  0.00000000E+00  0.00000000E+00  0.00000000E+00
  0.00000000E+00  0.00000000E+00  0.00000000E+00
  0.00000000E+00  0.00000000E+00  0.00000000E+00
  0.00000000E+00  0.00000000E+00  0.00000000E+00
  0.00000000E+00  0.00000000E+00  0.00000000E+00
  0.00000000E+00  0.00000000E+00  0.00000000E+00
  0.00000000E+00  0.00000000E+00  0.00000000E+00
  0.00000000E+00  0.00000000E+00  0.00000000E+00
  0.00000000E+00  0.00000000E+00  0.00000000E+00
  0.00000000E+00  0.00000000E+00  0.00000000E+00
  0.00000000E+00  0.00000000E+00  0.00000000E+00
  0.00000000E+00  0.00000000E+00  0.00000000E+00
  0.00000000E+00  0.00000000E+00  0.00000000E+00
  0.00000000E+00  0.00000000E+00  0.00000000E+00
  0.00000000E+00  0.00000000E+00  0.00000000E+00
  0.00000000E+00  0.00000000E+00  0.00000000E+00
  0.00000000E+00  0.00000000E+00  0.00000000E+00
  0.00000000E+00  0.00000000E+00  0.00000000E+00
  0.00000000E+00  0.00000000E+00  0.00000000E+00
  0.00000000E+00  0.00000000E+00  0.00000000E+00
  0.00000000E+00  0.00000000E+00  0.00000000E+00
  0.00000000E+00  0.00000000E+00  0.00000000E+00
  0.00000000E+00  0.00000000E+00  0.00000000E+00
  0.00000000E+00  0.00000000E+00  0.00000000E+00
  0.00000000E+00  0.00000000E+00  0.00000000E+00
  0.00000000E+00  0.00000000E+00  0.00000000E+00
  0.00000000E+00  0.00000000E+00  0.00000000E+00
  0.00000000E+00  0.00000000E+00  0.00000000E+00
  0.00000000E+00  0.00000000E+00  0.00000000E+00
  0.00000000E+00  0.00000000E+00  0.00000000E+00
  0.00000000E+00  0.00000000E+00  0.00000000E+00
  0.00000000E+00  0.00000000E+00  0.00000000E+00
  0.00000000E+00  0.00000000E+00  0.00000000E+00
  0.00000000E+00  0.00000000E+00  0.00000000E+00
  0.00000000E+00  0.00000000E+00  0.00000000E+00
  0.00000000E+00  0.00000000E+00  0.00000000E+00
  0.00000000E+00  0.00000000E+00  0.00000000E+00
